p tw 432 2080
1 33
2 34
3 35
4 36
5 37
6 38
7 39
8 40
9 41
10 42
11 43
12 44
13 45
14 46
15 47
16 48
17 49
18 50
19 51
20 52
21 53
22 54
23 55
24 56
25 57
26 58
27 59
28 60
29 61
30 62
31 63
32 64
33 108
33 135
33 155
33 159
33 161
33 162
34 67
34 75
34 94
34 128
34 129
34 130
35 97
35 116
35 121
35 137
35 141
35 142
36 85
36 139
36 147
36 150
36 151
36 152
37 105
37 106
37 107
37 108
37 109
37 110
38 98
38 132
38 144
38 150
38 159
38 160
39 66
39 87
39 88
39 89
39 90
39 91
40 122
40 125
40 157
40 166
40 171
40 173
41 68
41 106
41 124
41 143
41 153
41 154
42 83
42 111
42 112
42 113
42 114
42 115
43 112
43 120
43 124
43 125
43 126
43 127
44 102
44 105
44 137
44 138
44 139
44 140
45 99
45 113
45 151
45 163
45 166
45 167
46 84
46 128
46 131
46 134
46 135
46 136
47 65
47 71
47 83
47 84
47 85
47 86
48 69
48 81
48 114
48 129
48 174
48 176
49 87
49 93
49 101
49 102
49 103
49 104
50 78
50 95
50 101
50 131
50 132
50 133
51 148
51 153
51 164
51 168
51 169
51 170
52 72
52 92
52 93
52 94
52 95
52 96
53 73
53 92
53 97
53 98
53 99
53 100
54 71
54 72
54 73
54 74
54 75
54 76
55 79
55 89
55 141
55 147
55 148
55 149
56 107
56 134
56 155
56 156
56 157
56 158
57 74
57 111
57 116
57 117
57 118
57 119
58 109
58 117
58 156
58 163
58 164
58 165
59 80
59 118
59 145
59 168
59 171
59 172
60 77
60 88
60 120
60 121
60 122
60 123
61 103
61 138
61 143
61 144
61 145
61 146
62 65
62 66
62 67
62 68
62 69
62 70
63 90
63 126
63 161
63 169
63 174
63 175
64 77
64 78
64 79
64 80
64 81
64 82
65 66
65 67
65 68
65 69
65 70
65 71
65 83
65 84
65 85
65 86
66 67
66 68
66 69
66 70
66 87
66 88
66 89
66 90
66 91
67 68
67 69
67 70
67 75
67 94
67 128
67 129
67 130
68 69
68 70
68 106
68 124
68 143
68 153
68 154
69 70
69 81
69 114
69 129
69 174
69 176
70 177
70 178
70 179
70 180
70 181
70 182
71 72
71 73
71 74
71 75
71 76
71 83
71 84
71 85
71 86
72 73
72 74
72 75
72 76
72 92
72 93
72 94
72 95
72 96
73 74
73 75
73 76
73 92
73 97
73 98
73 99
73 100
74 75
74 76
74 111
74 116
74 117
74 118
74 119
75 76
75 94
75 128
75 129
75 130
76 183
76 184
76 185
76 186
76 187
76 188
77 78
77 79
77 80
77 81
77 82
77 88
77 120
77 121
77 122
77 123
78 79
78 80
78 81
78 82
78 95
78 101
78 131
78 132
78 133
79 80
79 81
79 82
79 89
79 141
79 147
79 148
79 149
80 81
80 82
80 118
80 145
80 168
80 171
80 172
81 82
81 114
81 129
81 174
81 176
82 189
82 190
82 191
82 192
82 193
82 194
83 84
83 85
83 86
83 111
83 112
83 113
83 114
83 115
84 85
84 86
84 128
84 131
84 134
84 135
84 136
85 86
85 139
85 147
85 150
85 151
85 152
86 177
86 183
86 195
86 196
86 197
86 198
87 88
87 89
87 90
87 91
87 93
87 101
87 102
87 103
87 104
88 89
88 90
88 91
88 120
88 121
88 122
88 123
89 90
89 91
89 141
89 147
89 148
89 149
90 91
90 126
90 161
90 169
90 174
90 175
91 178
91 199
91 200
91 201
91 202
91 203
92 93
92 94
92 95
92 96
92 97
92 98
92 99
92 100
93 94
93 95
93 96
93 101
93 102
93 103
93 104
94 95
94 96
94 128
94 129
94 130
95 96
95 101
95 131
95 132
95 133
96 184
96 204
96 205
96 206
96 207
96 208
97 98
97 99
97 100
97 116
97 121
97 137
97 141
97 142
98 99
98 100
98 132
98 144
98 150
98 159
98 160
99 100
99 113
99 151
99 163
99 166
99 167
100 185
100 204
100 209
100 210
100 211
100 212
101 102
101 103
101 104
101 131
101 132
101 133
102 103
102 104
102 105
102 137
102 138
102 139
102 140
103 104
103 138
103 143
103 144
103 145
103 146
104 199
104 205
104 213
104 214
104 215
104 216
105 106
105 107
105 108
105 109
105 110
105 137
105 138
105 139
105 140
106 107
106 108
106 109
106 110
106 124
106 143
106 153
106 154
107 108
107 109
107 110
107 134
107 155
107 156
107 157
107 158
108 109
108 110
108 135
108 155
108 159
108 161
108 162
109 110
109 117
109 156
109 163
109 164
109 165
110 217
110 218
110 219
110 220
110 221
110 222
111 112
111 113
111 114
111 115
111 116
111 117
111 118
111 119
112 113
112 114
112 115
112 120
112 124
112 125
112 126
112 127
113 114
113 115
113 151
113 163
113 166
113 167
114 115
114 129
114 174
114 176
115 195
115 223
115 224
115 225
115 226
115 227
116 117
116 118
116 119
116 121
116 137
116 141
116 142
117 118
117 119
117 156
117 163
117 164
117 165
118 119
118 145
118 168
118 171
118 172
119 186
119 223
119 228
119 229
119 230
119 231
120 121
120 122
120 123
120 124
120 125
120 126
120 127
121 122
121 123
121 137
121 141
121 142
122 123
122 125
122 157
122 166
122 171
122 173
123 189
123 200
123 232
123 233
123 234
123 235
124 125
124 126
124 127
124 143
124 153
124 154
125 126
125 127
125 157
125 166
125 171
125 173
126 127
126 161
126 169
126 174
126 175
127 224
127 232
127 236
127 237
127 238
127 239
128 129
128 130
128 131
128 134
128 135
128 136
129 130
129 174
129 176
130 179
130 187
130 206
130 240
130 241
130 242
131 132
131 133
131 134
131 135
131 136
132 133
132 144
132 150
132 159
132 160
133 190
133 207
133 213
133 243
133 244
133 245
134 135
134 136
134 155
134 156
134 157
134 158
135 136
135 155
135 159
135 161
135 162
136 196
136 240
136 243
136 246
136 247
136 248
137 138
137 139
137 140
137 141
137 142
138 139
138 140
138 143
138 144
138 145
138 146
139 140
139 147
139 150
139 151
139 152
140 214
140 217
140 249
140 250
140 251
140 252
141 142
141 147
141 148
141 149
142 209
142 228
142 233
142 249
142 253
142 254
143 144
143 145
143 146
143 153
143 154
144 145
144 146
144 150
144 159
144 160
145 146
145 168
145 171
145 172
146 215
146 250
146 255
146 256
146 257
146 258
147 148
147 149
147 150
147 151
147 152
148 149
148 153
148 164
148 168
148 169
148 170
149 191
149 201
149 253
149 259
149 260
149 261
150 151
150 152
150 159
150 160
151 152
151 163
151 166
151 167
152 197
152 251
152 259
152 262
152 263
152 264
153 154
153 164
153 168
153 169
153 170
154 180
154 218
154 236
154 255
154 265
154 266
155 156
155 157
155 158
155 159
155 161
155 162
156 157
156 158
156 163
156 164
156 165
157 158
157 166
157 171
157 173
158 219
158 246
158 267
158 268
158 269
158 270
159 160
159 161
159 162
160 210
160 244
160 256
160 262
160 271
160 272
161 162
161 169
161 174
161 175
162 220
162 247
162 267
162 271
162 273
162 274
163 164
163 165
163 166
163 167
164 165
164 168
164 169
164 170
165 221
165 229
165 268
165 275
165 276
165 277
166 167
166 171
166 173
167 211
167 225
167 263
167 275
167 278
167 279
168 169
168 170
168 171
168 172
169 170
169 174
169 175
170 260
170 265
170 276
170 280
170 281
170 282
171 172
171 173
172 192
172 230
172 257
172 280
172 283
172 284
173 234
173 237
173 269
173 278
173 283
173 285
174 175
174 176
175 202
175 238
175 273
175 281
175 286
175 287
176 181
176 193
176 226
176 241
176 286
176 288
177 178
177 179
177 180
177 181
177 182
177 183
177 195
177 196
177 197
177 198
178 179
178 180
178 181
178 182
178 199
178 200
178 201
178 202
178 203
179 180
179 181
179 182
179 187
179 206
179 240
179 241
179 242
180 181
180 182
180 218
180 236
180 255
180 265
180 266
181 182
181 193
181 226
181 241
181 286
181 288
182 289
182 290
182 291
182 292
182 293
182 294
183 184
183 185
183 186
183 187
183 188
183 195
183 196
183 197
183 198
184 185
184 186
184 187
184 188
184 204
184 205
184 206
184 207
184 208
185 186
185 187
185 188
185 204
185 209
185 210
185 211
185 212
186 187
186 188
186 223
186 228
186 229
186 230
186 231
187 188
187 206
187 240
187 241
187 242
188 295
188 296
188 297
188 298
188 299
188 300
189 190
189 191
189 192
189 193
189 194
189 200
189 232
189 233
189 234
189 235
190 191
190 192
190 193
190 194
190 207
190 213
190 243
190 244
190 245
191 192
191 193
191 194
191 201
191 253
191 259
191 260
191 261
192 193
192 194
192 230
192 257
192 280
192 283
192 284
193 194
193 226
193 241
193 286
193 288
194 301
194 302
194 303
194 304
194 305
194 306
195 196
195 197
195 198
195 223
195 224
195 225
195 226
195 227
196 197
196 198
196 240
196 243
196 246
196 247
196 248
197 198
197 251
197 259
197 262
197 263
197 264
198 289
198 295
198 307
198 308
198 309
198 310
199 200
199 201
199 202
199 203
199 205
199 213
199 214
199 215
199 216
200 201
200 202
200 203
200 232
200 233
200 234
200 235
201 202
201 203
201 253
201 259
201 260
201 261
202 203
202 238
202 273
202 281
202 286
202 287
203 290
203 311
203 312
203 313
203 314
203 315
204 205
204 206
204 207
204 208
204 209
204 210
204 211
204 212
205 206
205 207
205 208
205 213
205 214
205 215
205 216
206 207
206 208
206 240
206 241
206 242
207 208
207 213
207 243
207 244
207 245
208 296
208 316
208 317
208 318
208 319
208 320
209 210
209 211
209 212
209 228
209 233
209 249
209 253
209 254
210 211
210 212
210 244
210 256
210 262
210 271
210 272
211 212
211 225
211 263
211 275
211 278
211 279
212 297
212 316
212 321
212 322
212 323
212 324
213 214
213 215
213 216
213 243
213 244
213 245
214 215
214 216
214 217
214 249
214 250
214 251
214 252
215 216
215 250
215 255
215 256
215 257
215 258
216 311
216 317
216 325
216 326
216 327
216 328
217 218
217 219
217 220
217 221
217 222
217 249
217 250
217 251
217 252
218 219
218 220
218 221
218 222
218 236
218 255
218 265
218 266
219 220
219 221
219 222
219 246
219 267
219 268
219 269
219 270
220 221
220 222
220 247
220 267
220 271
220 273
220 274
221 222
221 229
221 268
221 275
221 276
221 277
222 329
222 330
222 331
222 332
222 333
222 334
223 224
223 225
223 226
223 227
223 228
223 229
223 230
223 231
224 225
224 226
224 227
224 232
224 236
224 237
224 238
224 239
225 226
225 227
225 263
225 275
225 278
225 279
226 227
226 241
226 286
226 288
227 307
227 335
227 336
227 337
227 338
227 339
228 229
228 230
228 231
228 233
228 249
228 253
228 254
229 230
229 231
229 268
229 275
229 276
229 277
230 231
230 257
230 280
230 283
230 284
231 298
231 335
231 340
231 341
231 342
231 343
232 233
232 234
232 235
232 236
232 237
232 238
232 239
233 234
233 235
233 249
233 253
233 254
234 235
234 237
234 269
234 278
234 283
234 285
235 301
235 312
235 344
235 345
235 346
235 347
236 237
236 238
236 239
236 255
236 265
236 266
237 238
237 239
237 269
237 278
237 283
237 285
238 239
238 273
238 281
238 286
238 287
239 336
239 344
239 348
239 349
239 350
239 351
240 241
240 242
240 243
240 246
240 247
240 248
241 242
241 286
241 288
242 291
242 299
242 318
242 352
242 353
242 354
243 244
243 245
243 246
243 247
243 248
244 245
244 256
244 262
244 271
244 272
245 302
245 319
245 325
245 355
245 356
245 357
246 247
246 248
246 267
246 268
246 269
246 270
247 248
247 267
247 271
247 273
247 274
248 308
248 352
248 355
248 358
248 359
248 360
249 250
249 251
249 252
249 253
249 254
250 251
250 252
250 255
250 256
250 257
250 258
251 252
251 259
251 262
251 263
251 264
252 326
252 329
252 361
252 362
252 363
252 364
253 254
253 259
253 260
253 261
254 321
254 340
254 345
254 361
254 365
254 366
255 256
255 257
255 258
255 265
255 266
256 257
256 258
256 262
256 271
256 272
257 258
257 280
257 283
257 284
258 327
258 362
258 367
258 368
258 369
258 370
259 260
259 261
259 262
259 263
259 264
260 261
260 265
260 276
260 280
260 281
260 282
261 303
261 313
261 365
261 371
261 372
261 373
262 263
262 264
262 271
262 272
263 264
263 275
263 278
263 279
264 309
264 363
264 371
264 374
264 375
264 376
265 266
265 276
265 280
265 281
265 282
266 292
266 330
266 348
266 367
266 377
266 378
267 268
267 269
267 270
267 271
267 273
267 274
268 269
268 270
268 275
268 276
268 277
269 270
269 278
269 283
269 285
270 331
270 358
270 379
270 380
270 381
270 382
271 272
271 273
271 274
272 322
272 356
272 368
272 374
272 383
272 384
273 274
273 281
273 286
273 287
274 332
274 359
274 379
274 383
274 385
274 386
275 276
275 277
275 278
275 279
276 277
276 280
276 281
276 282
277 333
277 341
277 380
277 387
277 388
277 389
278 279
278 283
278 285
279 323
279 337
279 375
279 387
279 390
279 391
280 281
280 282
280 283
280 284
281 282
281 286
281 287
282 372
282 377
282 388
282 392
282 393
282 394
283 284
283 285
284 304
284 342
284 369
284 392
284 395
284 396
285 346
285 349
285 381
285 390
285 395
285 397
286 287
286 288
287 314
287 350
287 385
287 393
287 398
287 399
288 293
288 305
288 338
288 353
288 398
288 400
289 290
289 291
289 292
289 293
289 294
289 295
289 307
289 308
289 309
289 310
290 291
290 292
290 293
290 294
290 311
290 312
290 313
290 314
290 315
291 292
291 293
291 294
291 299
291 318
291 352
291 353
291 354
292 293
292 294
292 330
292 348
292 367
292 377
292 378
293 294
293 305
293 338
293 353
293 398
293 400
294 403
295 296
295 297
295 298
295 299
295 300
295 307
295 308
295 309
295 310
296 297
296 298
296 299
296 300
296 316
296 317
296 318
296 319
296 320
297 298
297 299
297 300
297 316
297 321
297 322
297 323
297 324
298 299
298 300
298 335
298 340
298 341
298 342
298 343
299 300
299 318
299 352
299 353
299 354
300 411
301 302
301 303
301 304
301 305
301 306
301 312
301 344
301 345
301 346
301 347
302 303
302 304
302 305
302 306
302 319
302 325
302 355
302 356
302 357
303 304
303 305
303 306
303 313
303 365
303 371
303 372
303 373
304 305
304 306
304 342
304 369
304 392
304 395
304 396
305 306
305 338
305 353
305 398
305 400
306 401
307 308
307 309
307 310
307 335
307 336
307 337
307 338
307 339
308 309
308 310
308 352
308 355
308 358
308 359
308 360
309 310
309 363
309 371
309 374
309 375
309 376
310 418
311 312
311 313
311 314
311 315
311 317
311 325
311 326
311 327
311 328
312 313
312 314
312 315
312 344
312 345
312 346
312 347
313 314
313 315
313 365
313 371
313 372
313 373
314 315
314 350
314 385
314 393
314 398
314 399
315 426
316 317
316 318
316 319
316 320
316 321
316 322
316 323
316 324
317 318
317 319
317 320
317 325
317 326
317 327
317 328
318 319
318 320
318 352
318 353
318 354
319 320
319 325
319 355
319 356
319 357
320 413
321 322
321 323
321 324
321 340
321 345
321 361
321 365
321 366
322 323
322 324
322 356
322 368
322 374
322 383
322 384
323 324
323 337
323 375
323 387
323 390
323 391
324 412
325 326
325 327
325 328
325 355
325 356
325 357
326 327
326 328
326 329
326 361
326 362
326 363
326 364
327 328
327 362
327 367
327 368
327 369
327 370
328 416
329 330
329 331
329 332
329 333
329 334
329 361
329 362
329 363
329 364
330 331
330 332
330 333
330 334
330 348
330 367
330 377
330 378
331 332
331 333
331 334
331 358
331 379
331 380
331 381
331 382
332 333
332 334
332 359
332 379
332 383
332 385
332 386
333 334
333 341
333 380
333 387
333 388
333 389
334 428
335 336
335 337
335 338
335 339
335 340
335 341
335 342
335 343
336 337
336 338
336 339
336 344
336 348
336 349
336 350
336 351
337 338
337 339
337 375
337 387
337 390
337 391
338 339
338 353
338 398
338 400
339 423
340 341
340 342
340 343
340 345
340 361
340 365
340 366
341 342
341 343
341 380
341 387
341 388
341 389
342 343
342 369
342 392
342 395
342 396
343 408
344 345
344 346
344 347
344 348
344 349
344 350
344 351
345 346
345 347
345 361
345 365
345 366
346 347
346 349
346 381
346 390
346 395
346 397
347 405
348 349
348 350
348 351
348 367
348 377
348 378
349 350
349 351
349 381
349 390
349 395
349 397
350 351
350 385
350 393
350 398
350 399
351 422
352 353
352 354
352 355
352 358
352 359
352 360
353 354
353 398
353 400
354 431
355 356
355 357
355 358
355 359
355 360
356 357
356 368
356 374
356 383
356 384
357 415
358 359
358 360
358 379
358 380
358 381
358 382
359 360
359 379
359 383
359 385
359 386
360 419
361 362
361 363
361 364
361 365
361 366
362 363
362 364
362 367
362 368
362 369
362 370
363 364
363 371
363 374
363 375
363 376
364 421
365 366
365 371
365 372
365 373
366 430
367 368
367 369
367 370
367 377
367 378
368 369
368 370
368 374
368 383
368 384
369 370
369 392
369 395
369 396
370 404
371 372
371 373
371 374
371 375
371 376
372 373
372 377
372 388
372 392
372 393
372 394
373 410
374 375
374 376
374 383
374 384
375 376
375 387
375 390
375 391
376 429
377 378
377 388
377 392
377 393
377 394
378 424
379 380
379 381
379 382
379 383
379 385
379 386
380 381
380 382
380 387
380 388
380 389
381 382
381 390
381 395
381 397
382 409
383 384
383 385
383 386
384 427
385 386
385 393
385 398
385 399
386 432
387 388
387 389
387 390
387 391
388 389
388 392
388 393
388 394
389 407
390 391
390 395
390 397
391 420
392 393
392 394
392 395
392 396
393 394
393 398
393 399
394 414
395 396
395 397
396 406
397 425
398 399
398 400
399 402
400 417
